;; Mutation-Based Equivalence Benchmark
;; Source:     AutomatArk / instance03513.smt2
;; Mutations:  intersect_min_len_5
;; Status:     sat
;;
;; Original regex vs mutated regex
;; Equivalence check: unsat ⟺ L(R1) = L(R2)

(set-info :smt-lib-version 2.6)
(set-info :category "mutation")
(set-info :status sat)
(set-logic QF_S)


;; R1: original
;; R2: mutated (intersect_min_len_5)
(assert
  (not
    (=
      (re.++ (str.to_re "\u{a}") (re.union (re.range "0" "9") (re.range "a" "z") (re.range "A" "Z")) (re.* (re.++ (re.* (re.union (str.to_re "-") (str.to_re ".") (re.range "0" "9") (re.range "A" "Z") (re.range "a" "z") (str.to_re "_"))) (re.union (re.range "0" "9") (re.range "a" "z") (re.range "A" "Z")))) (str.to_re "@") (re.+ (re.++ (re.union (re.range "0" "9") (re.range "a" "z") (re.range "A" "Z")) (re.* (re.union (str.to_re "-") (re.range "0" "9") (re.range "A" "Z") (re.range "a" "z") (str.to_re "_"))) (re.union (re.range "0" "9") (re.range "a" "z") (re.range "A" "Z")) (str.to_re "."))) ((_ re.loop 2 9) (re.union (re.range "a" "z") (re.range "A" "Z"))))
      (re.++ (str.to_re "\u{a}") (re.union (re.range "0" "9") (re.range "a" "z") (re.range "A" "Z")) (re.* (re.++ (re.* (re.union (str.to_re "-") (str.to_re ".") (re.range "0" "9") (re.range "A" "Z") (re.range "a" "z") (str.to_re "_"))) (re.union (re.range "0" "9") (re.range "a" "z") (re.range "A" "Z")))) (str.to_re "@") (re.+ (re.++ (re.union (re.range "0" "9") (re.range "a" "z") (re.range "A" "Z")) (re.* (re.union (str.to_re "-") (re.range "0" "9") (re.range "A" "Z") (re.range "a" "z") (str.to_re "_"))) (re.inter (re.union (re.range "0" "9") (re.range "a" "z") (re.range "A" "Z")) (re.++ ((_ re.loop 5 5) re.allchar) re.all)) (str.to_re "."))) ((_ re.loop 2 9) (re.union (re.range "a" "z") (re.range "A" "Z")))))))

(check-sat)
(exit)
